
Log started (V22.1.1.0) Wed Apr 10 16:46:16 2024

New value for mixed integer optimality gap tolerance: 0.0002
New value for time limit in seconds: 14400
New value for integrality tolerance: 0
New value for feasibility tolerance: 1e-08

Problem '/tmp/224234.1.RCCS/tmpa6rln7hc.pyomo.lp' read.
Read time = 0.06 sec. (4.34 ticks)

Problem name         : /tmp/224234.1.RCCS/tmpa6rln7hc.pyomo.lp
Objective sense      : Minimize
Variables            :   25219  [Nneg: 1,  Box: 24098,  Binary: 72,
                                 General Integer: 1048]
Objective nonzeros   :       2
Linear constraints   :   54564  [Less: 26593,  Greater: 2880,  Equal: 25091]
  Nonzeros           :   92491
  RHS nonzeros       :    2881

Variables            : Min LB: 0.000000         Max UB: 1.000000e+10   
Objective nonzeros   : Min   : 0.1187400        Max   : 1.000000       
Linear constraints   :
  Nonzeros           : Min   : 0.02000000       Max   : 1084852.       
  RHS nonzeros       : Min   : 1.000000         Max   : 2.166667e+07   
Version identifier: 22.1.1.0 | 2022-11-28 | 9160aff4d
CPXPARAM_Simplex_Tolerances_Feasibility          1e-08
CPXPARAM_TimeLimit                               14400
CPXPARAM_MIP_Tolerances_MIPGap                   0.00020000000000000001
CPXPARAM_MIP_Tolerances_Integrality              0
Tried aggregator 2 times.
MIP Presolve eliminated 53357 rows and 23494 columns.
MIP Presolve modified 252 coefficients.
Aggregator did 595 substitutions.
Reduced MIP has 612 rows, 1129 columns, and 3874 nonzeros.
Reduced MIP has 530 binaries, 28 generals, 0 SOSs, and 0 indicators.
Presolve time = 0.03 sec. (41.41 ticks)
Found incumbent of value 9876557.512132 after 0.03 sec. (45.74 ticks)
Probing time = 0.01 sec. (21.41 ticks)
Tried aggregator 1 time.
Detecting symmetries...
MIP Presolve eliminated 26 rows and 24 columns.
MIP Presolve modified 2 coefficients.
Reduced MIP has 586 rows, 1105 columns, and 3782 nonzeros.
Reduced MIP has 530 binaries, 28 generals, 0 SOSs, and 0 indicators.
Presolve time = 0.00 sec. (4.22 ticks)
Probing time = 0.00 sec. (3.29 ticks)
Clique table members: 33.
MIP emphasis: balance optimality and feasibility.
MIP search method: dynamic search.
Parallel mode: deterministic, using up to 32 threads.
Root relaxation solution time = 0.02 sec. (16.08 ticks)

        Nodes                                         Cuts/
   Node  Left     Objective  IInf  Best Integer    Best Bound    ItCnt     Gap

*     0+    0                      9876557.5121        0.0000           100.00%
      0     0   174683.8187     6  9876557.5121   174683.8187      677   98.23%
*     0+    0                       222688.8382   174683.8187            21.56%
      0     0   197867.8628     1   222688.8382      Cuts: 17      749   11.15%
*     0+    0                       199330.9590   197867.8628             0.73%
      0     0        cutoff         199330.9590                    792    0.00%
Elapsed time = 0.26 sec. (127.76 ticks, tree = 0.01 MB, solutions = 3)

GUB cover cuts applied:  2
Cover cuts applied:  2
Flow cuts applied:  3
Mixed integer rounding cuts applied:  1
Gomory fractional cuts applied:  3

Root node processing (before b&c):
  Real time             =    0.26 sec. (128.80 ticks)
Parallel b&c, 32 threads:
  Real time             =    0.00 sec. (0.00 ticks)
  Sync time (average)   =    0.00 sec.
  Wait time (average)   =    0.00 sec.
                          ------------
Total (root+branch&cut) =    0.26 sec. (128.80 ticks)

Solution pool: 3 solutions saved.

MIP - Integer optimal solution:  Objective =  1.9933095902e+05
Solution time =    0.27 sec.  Iterations = 792  Nodes = 0
Deterministic time = 128.87 ticks  (485.50 ticks/sec)


Incumbent solution written to file '/tmp/224234.1.RCCS/tmppzenur2o.cplex.sol'.
